MARKOV
125
2 2 2 2 2 2 2 2 2 2 2 2 2 2 2 2 2 2 2 2 2 2 2 2 2 2 2 2 2 2 2 2 2 2 2 2 2 2 2 2 2 2 2 2 2 2 2 2 2 2 2 2 2 2 2 2 2 2 2 2 2 2 2 2 2 2 2 2 2 2 2 2 2 2 2 2 2 2 2 2 2 2 2 2 2 2 2 2 2 2 2 2 2 2 2 2 2 2 2 2 2 2 2 2 2 2 2 2 2 2 2 2 2 2 2 2 2 2 2 2 2 2 2 2 2
310
2 0 20
2 4 24
2 8 28
2 12 32
2 16 36
2 1 21
2 5 25
2 9 29
2 13 33
2 17 37
2 2 22
2 6 26
2 10 30
2 14 34
2 18 38
2 3 23
2 7 27
2 11 31
2 15 35
2 19 39
5 40 0 21 2 3
5 41 4 25 6 7
5 42 8 29 10 11
5 43 12 33 14 15
5 44 16 37 18 19
5 40 20 1 2 3
5 41 24 5 6 7
5 42 28 9 10 11
5 43 32 13 14 15
5 44 36 17 18 19
5 40 20 1 2 23
5 41 24 5 6 27
5 42 28 9 10 31
5 43 32 13 14 35
5 44 36 17 18 39
5 40 20 21 2 3
5 41 24 25 6 7
5 42 28 29 10 11
5 43 32 33 14 15
5 44 36 37 18 19
5 40 20 21 2 23
5 41 24 25 6 27
5 42 28 29 10 31
5 43 32 33 14 35
5 44 36 37 18 39
5 40 20 21 22 3
5 41 24 25 26 7
5 42 28 29 30 11
5 43 32 33 34 15
5 44 36 37 38 19
5 45 46 47 48 49
5 50 51 52 53 54
5 55 56 57 58 59
5 60 61 62 63 64
5 70 71 72 73 74
5 75 76 77 78 79
5 80 81 82 83 84
5 95 96 97 98 99
5 100 101 102 103 104
5 120 121 122 123 124
2 45 40
2 46 41
2 47 42
2 48 43
2 49 44
2 50 40
2 51 41
2 52 42
2 53 43
2 54 44
2 55 40
2 56 41
2 57 42
2 58 43
2 59 44
2 60 40
2 61 41
2 62 42
2 63 43
2 64 44
2 70 40
2 71 41
2 72 42
2 73 43
2 74 44
2 75 40
2 76 41
2 77 42
2 78 43
2 79 44
2 80 40
2 81 41
2 82 42
2 83 43
2 84 44
2 95 40
2 96 41
2 97 42
2 98 43
2 99 44
2 100 40
2 101 41
2 102 42
2 103 43
2 104 44
2 120 40
2 121 41
2 122 42
2 123 43
2 124 44
2 45 0
2 46 4
2 47 8
2 48 12
2 49 16
2 45 1
2 46 5
2 47 9
2 48 13
2 49 17
2 45 2
2 46 6
2 47 10
2 48 14
2 49 18
2 45 3
2 46 7
2 47 11
2 48 15
2 49 19
2 50 0
2 51 4
2 52 8
2 53 12
2 54 16
2 50 1
2 51 5
2 52 9
2 53 13
2 54 17
2 50 2
2 51 6
2 52 10
2 53 14
2 54 18
2 50 23
2 51 27
2 52 31
2 53 35
2 54 39
2 55 0
2 56 4
2 57 8
2 58 12
2 59 16
2 55 1
2 56 5
2 57 9
2 58 13
2 59 17
2 55 22
2 56 26
2 57 30
2 58 34
2 59 38
2 55 3
2 56 7
2 57 11
2 58 15
2 59 19
2 60 0
2 61 4
2 62 8
2 63 12
2 64 16
2 60 1
2 61 5
2 62 9
2 63 13
2 64 17
2 60 22
2 61 26
2 62 30
2 63 34
2 64 38
2 60 23
2 61 27
2 62 31
2 63 35
2 64 39
2 70 0
2 71 4
2 72 8
2 73 12
2 74 16
2 70 21
2 71 25
2 72 29
2 73 33
2 74 37
2 70 2
2 71 6
2 72 10
2 73 14
2 74 18
2 70 23
2 71 27
2 72 31
2 73 35
2 74 39
2 75 0
2 76 4
2 77 8
2 78 12
2 79 16
2 75 21
2 76 25
2 77 29
2 78 33
2 79 37
2 75 22
2 76 26
2 77 30
2 78 34
2 79 38
2 75 3
2 76 7
2 77 11
2 78 15
2 79 19
2 80 0
2 81 4
2 82 8
2 83 12
2 84 16
2 80 21
2 81 25
2 82 29
2 83 33
2 84 37
2 80 22
2 81 26
2 82 30
2 83 34
2 84 38
2 80 23
2 81 27
2 82 31
2 83 35
2 84 39
2 95 20
2 96 24
2 97 28
2 98 32
2 99 36
2 95 1
2 96 5
2 97 9
2 98 13
2 99 17
2 95 22
2 96 26
2 97 30
2 98 34
2 99 38
2 95 3
2 96 7
2 97 11
2 98 15
2 99 19
2 100 20
2 101 24
2 102 28
2 103 32
2 104 36
2 100 1
2 101 5
2 102 9
2 103 13
2 104 17
2 100 22
2 101 26
2 102 30
2 103 34
2 104 38
2 100 23
2 101 27
2 102 31
2 103 35
2 104 39
2 120 20
2 121 24
2 122 28
2 123 32
2 124 36
2 120 21
2 121 25
2 122 29
2 123 33
2 124 37
2 120 22
2 121 26
2 122 30
2 123 34
2 124 38
2 120 23
2 121 27
2 122 31
2 123 35
2 124 39
4
0 1 1 1
4
0 1 1 1
4
0 1 1 1
4
0 1 1 1
4
0 1 1 1
4
0 1 1 1
4
0 1 1 1
4
0 1 1 1
4
0 1 1 1
4
0 1 1 1
4
0 1 1 1
4
0 1 1 1
4
0 1 1 1
4
0 1 1 1
4
0 1 1 1
4
0 1 1 1
4
0 1 1 1
4
0 1 1 1
4
0 1 1 1
4
0 1 1 1
32
1 1 1 1 1 1 1 1 1 1 1 1 1 1 1 1 1 1 1 1 1 1 1 1 1 1 1 1 1 1 1 0
32
1 1 1 1 1 1 1 1 1 1 1 1 1 1 1 1 1 1 1 1 1 1 1 1 1 1 1 1 1 1 1 0
32
1 1 1 1 1 1 1 1 1 1 1 1 1 1 1 1 1 1 1 1 1 1 1 1 1 1 1 1 1 1 1 0
32
1 1 1 1 1 1 1 1 1 1 1 1 1 1 1 1 1 1 1 1 1 1 1 1 1 1 1 1 1 1 1 0
32
1 1 1 1 1 1 1 1 1 1 1 1 1 1 1 1 1 1 1 1 1 1 1 1 1 1 1 1 1 1 1 0
32
1 1 1 1 1 1 1 1 1 1 1 1 1 1 1 1 1 1 1 1 1 1 1 1 1 1 1 1 1 1 1 0
32
1 1 1 1 1 1 1 1 1 1 1 1 1 1 1 1 1 1 1 1 1 1 1 1 1 1 1 1 1 1 1 0
32
1 1 1 1 1 1 1 1 1 1 1 1 1 1 1 1 1 1 1 1 1 1 1 1 1 1 1 1 1 1 1 0
32
1 1 1 1 1 1 1 1 1 1 1 1 1 1 1 1 1 1 1 1 1 1 1 1 1 1 1 1 1 1 1 0
32
1 1 1 1 1 1 1 1 1 1 1 1 1 1 1 1 1 1 1 1 1 1 1 1 1 1 1 1 1 1 1 0
32
1 1 1 1 1 1 1 1 1 1 1 1 1 1 1 1 1 1 1 1 1 1 1 1 1 1 1 1 1 1 1 0
32
1 1 1 1 1 1 1 1 1 1 1 1 1 1 1 1 1 1 1 1 1 1 1 1 1 1 1 1 1 1 1 0
32
1 1 1 1 1 1 1 1 1 1 1 1 1 1 1 1 1 1 1 1 1 1 1 1 1 1 1 1 1 1 1 0
32
1 1 1 1 1 1 1 1 1 1 1 1 1 1 1 1 1 1 1 1 1 1 1 1 1 1 1 1 1 1 1 0
32
1 1 1 1 1 1 1 1 1 1 1 1 1 1 1 1 1 1 1 1 1 1 1 1 1 1 1 1 1 1 1 0
32
1 1 1 1 1 1 1 1 1 1 1 1 1 1 1 1 1 1 1 1 1 1 1 1 1 1 1 1 1 1 1 0
32
1 1 1 1 1 1 1 1 1 1 1 1 1 1 1 1 1 1 1 1 1 1 1 1 1 1 1 1 1 1 1 0
32
1 1 1 1 1 1 1 1 1 1 1 1 1 1 1 1 1 1 1 1 1 1 1 1 1 1 1 1 1 1 1 0
32
1 1 1 1 1 1 1 1 1 1 1 1 1 1 1 1 1 1 1 1 1 1 1 1 1 1 1 1 1 1 1 0
32
1 1 1 1 1 1 1 1 1 1 1 1 1 1 1 1 1 1 1 1 1 1 1 1 1 1 1 1 1 1 1 0
32
1 1 1 1 1 1 1 1 1 1 1 1 1 1 1 1 1 1 1 1 1 1 1 1 1 1 1 1 1 1 1 0
32
1 1 1 1 1 1 1 1 1 1 1 1 1 1 1 1 1 1 1 1 1 1 1 1 1 1 1 1 1 1 1 0
32
1 1 1 1 1 1 1 1 1 1 1 1 1 1 1 1 1 1 1 1 1 1 1 1 1 1 1 1 1 1 1 0
32
1 1 1 1 1 1 1 1 1 1 1 1 1 1 1 1 1 1 1 1 1 1 1 1 1 1 1 1 1 1 1 0
32
1 1 1 1 1 1 1 1 1 1 1 1 1 1 1 1 1 1 1 1 1 1 1 1 1 1 1 1 1 1 1 0
32
1 1 1 1 1 1 1 1 1 1 1 1 1 1 1 1 1 1 1 1 1 1 1 1 1 1 1 1 1 1 1 0
32
1 1 1 1 1 1 1 1 1 1 1 1 1 1 1 1 1 1 1 1 1 1 1 1 1 1 1 1 1 1 1 0
32
1 1 1 1 1 1 1 1 1 1 1 1 1 1 1 1 1 1 1 1 1 1 1 1 1 1 1 1 1 1 1 0
32
1 1 1 1 1 1 1 1 1 1 1 1 1 1 1 1 1 1 1 1 1 1 1 1 1 1 1 1 1 1 1 0
32
1 1 1 1 1 1 1 1 1 1 1 1 1 1 1 1 1 1 1 1 1 1 1 1 1 1 1 1 1 1 1 0
32
0 1 1 1 1 1 1 1 1 1 1 1 1 1 1 1 1 1 1 1 1 1 1 1 1 1 1 1 1 1 1 1
32
0 1 1 1 1 1 1 1 1 1 1 1 1 1 1 1 1 1 1 1 1 1 1 1 1 1 1 1 1 1 1 1
32
0 1 1 1 1 1 1 1 1 1 1 1 1 1 1 1 1 1 1 1 1 1 1 1 1 1 1 1 1 1 1 1
32
0 1 1 1 1 1 1 1 1 1 1 1 1 1 1 1 1 1 1 1 1 1 1 1 1 1 1 1 1 1 1 1
32
0 1 1 1 1 1 1 1 1 1 1 1 1 1 1 1 1 1 1 1 1 1 1 1 1 1 1 1 1 1 1 1
32
0 1 1 1 1 1 1 1 1 1 1 1 1 1 1 1 1 1 1 1 1 1 1 1 1 1 1 1 1 1 1 1
32
0 1 1 1 1 1 1 1 1 1 1 1 1 1 1 1 1 1 1 1 1 1 1 1 1 1 1 1 1 1 1 1
32
0 1 1 1 1 1 1 1 1 1 1 1 1 1 1 1 1 1 1 1 1 1 1 1 1 1 1 1 1 1 1 1
32
0 1 1 1 1 1 1 1 1 1 1 1 1 1 1 1 1 1 1 1 1 1 1 1 1 1 1 1 1 1 1 1
32
0 1 1 1 1 1 1 1 1 1 1 1 1 1 1 1 1 1 1 1 1 1 1 1 1 1 1 1 1 1 1 1
4
1 1 0 1
4
1 1 0 1
4
1 1 0 1
4
1 1 0 1
4
1 1 0 1
4
1 1 0 1
4
1 1 0 1
4
1 1 0 1
4
1 1 0 1
4
1 1 0 1
4
1 1 0 1
4
1 1 0 1
4
1 1 0 1
4
1 1 0 1
4
1 1 0 1
4
1 1 0 1
4
1 1 0 1
4
1 1 0 1
4
1 1 0 1
4
1 1 0 1
4
1 1 0 1
4
1 1 0 1
4
1 1 0 1
4
1 1 0 1
4
1 1 0 1
4
1 1 0 1
4
1 1 0 1
4
1 1 0 1
4
1 1 0 1
4
1 1 0 1
4
1 1 0 1
4
1 1 0 1
4
1 1 0 1
4
1 1 0 1
4
1 1 0 1
4
1 1 0 1
4
1 1 0 1
4
1 1 0 1
4
1 1 0 1
4
1 1 0 1
4
1 1 0 1
4
1 1 0 1
4
1 1 0 1
4
1 1 0 1
4
1 1 0 1
4
1 1 0 1
4
1 1 0 1
4
1 1 0 1
4
1 1 0 1
4
1 1 0 1
4
1 1 0 1
4
1 1 0 1
4
1 1 0 1
4
1 1 0 1
4
1 1 0 1
4
1 1 0 1
4
1 1 0 1
4
1 1 0 1
4
1 1 0 1
4
1 1 0 1
4
1 1 0 1
4
1 1 0 1
4
1 1 0 1
4
1 1 0 1
4
1 1 0 1
4
1 1 0 1
4
1 1 0 1
4
1 1 0 1
4
1 1 0 1
4
1 1 0 1
4
1 1 0 1
4
1 1 0 1
4
1 1 0 1
4
1 1 0 1
4
1 1 0 1
4
1 1 0 1
4
1 1 0 1
4
1 1 0 1
4
1 1 0 1
4
1 1 0 1
4
1 1 0 1
4
1 1 0 1
4
1 1 0 1
4
1 1 0 1
4
1 1 0 1
4
1 1 0 1
4
1 1 0 1
4
1 1 0 1
4
1 1 0 1
4
1 1 0 1
4
1 1 0 1
4
1 1 0 1
4
1 1 0 1
4
1 1 0 1
4
1 1 0 1
4
1 1 0 1
4
1 1 0 1
4
1 1 0 1
4
1 1 0 1
4
1 1 0 1
4
1 1 0 1
4
1 1 0 1
4
1 1 0 1
4
1 1 0 1
4
1 1 0 1
4
1 1 0 1
4
1 1 0 1
4
1 1 0 1
4
1 1 0 1
4
1 1 0 1
4
1 1 0 1
4
1 1 0 1
4
1 1 0 1
4
1 1 0 1
4
1 1 0 1
4
1 1 0 1
4
1 1 0 1
4
1 1 0 1
4
1 1 0 1
4
1 1 0 1
4
1 1 0 1
4
1 1 0 1
4
1 1 0 1
4
1 1 0 1
4
1 1 0 1
4
1 1 0 1
4
1 1 0 1
4
1 1 0 1
4
1 1 0 1
4
1 1 0 1
4
1 1 0 1
4
1 1 0 1
4
1 1 0 1
4
1 1 0 1
4
1 1 0 1
4
1 1 0 1
4
1 1 0 1
4
1 1 0 1
4
1 1 0 1
4
1 1 0 1
4
1 1 0 1
4
1 1 0 1
4
1 1 0 1
4
1 1 0 1
4
1 1 0 1
4
1 1 0 1
4
1 1 0 1
4
1 1 0 1
4
1 1 0 1
4
1 1 0 1
4
1 1 0 1
4
1 1 0 1
4
1 1 0 1
4
1 1 0 1
4
1 1 0 1
4
1 1 0 1
4
1 1 0 1
4
1 1 0 1
4
1 1 0 1
4
1 1 0 1
4
1 1 0 1
4
1 1 0 1
4
1 1 0 1
4
1 1 0 1
4
1 1 0 1
4
1 1 0 1
4
1 1 0 1
4
1 1 0 1
4
1 1 0 1
4
1 1 0 1
4
1 1 0 1
4
1 1 0 1
4
1 1 0 1
4
1 1 0 1
4
1 1 0 1
4
1 1 0 1
4
1 1 0 1
4
1 1 0 1
4
1 1 0 1
4
1 1 0 1
4
1 1 0 1
4
1 1 0 1
4
1 1 0 1
4
1 1 0 1
4
1 1 0 1
4
1 1 0 1
4
1 1 0 1
4
1 1 0 1
4
1 1 0 1
4
1 1 0 1
4
1 1 0 1
4
1 1 0 1
4
1 1 0 1
4
1 1 0 1
4
1 1 0 1
4
1 1 0 1
4
1 1 0 1
4
1 1 0 1
4
1 1 0 1
4
1 1 0 1
4
1 1 0 1
4
1 1 0 1
4
1 1 0 1
4
1 1 0 1
4
1 1 0 1
4
1 1 0 1
4
1 1 0 1
4
1 1 0 1
4
1 1 0 1
4
1 1 0 1
4
1 1 0 1
4
1 1 0 1
4
1 1 0 1
4
1 1 0 1
4
1 1 0 1
4
1 1 0 1
4
1 1 0 1
4
1 1 0 1
4
1 1 0 1
4
1 1 0 1
4
1 1 0 1
4
1 1 0 1
4
1 1 0 1
4
1 1 0 1
4
1 1 0 1
4
1 1 0 1
4
1 1 0 1
4
1 1 0 1
4
1 1 0 1
4
1 1 0 1
4
1 1 0 1
4
1 1 0 1
4
1 1 0 1
4
1 1 0 1
4
1 1 0 1
4
1 1 0 1
4
1 1 0 1
4
1 1 0 1
4
1 1 0 1
4
1 1 0 1
4
1 1 0 1
4
1 1 0 1
4
1 1 0 1
4
1 1 0 1
4
1 1 0 1
4
1 1 0 1
4
1 1 0 1
4
1 1 0 1
4
1 1 0 1
4
1 1 0 1
